# Instance created by Brandimarte (1993)
58 48 6
0 1
1 2
2 3
3 4
4 5
6 7
7 8
8 9
9 10
10 11
12 13
13 14
14 15
15 16
16 17
18 19
19 20
20 21
21 22
22 23
24 25
25 26
26 27
27 28
28 29
30 31
31 32
32 33
33 34
34 35
36 37
37 38
38 39
39 40
41 42
42 43
43 44
44 45
45 46
47 48
48 49
49 50
50 51
52 53
53 54
54 55
55 56
56 57
6 2 3 3 5 0 3 5 6 1 2 4 3
2 5 5 2 4
6 0 1 4 6 2 3 3 3 1 6 5 5
1 1 6
2 5 3 4 6
3 2 2 1 1 4 4
5 5 1 4 6 0 3 1 4 3 2
2 5 3 4 6
1 4 2
2 1 4 2 3
3 2 2 1 1 4 4
6 2 3 3 5 0 3 5 6 1 2 4 3
6 0 1 4 6 2 3 3 3 1 6 5 5
6 4 3 3 6 1 4 5 6 2 6 0 2
3 2 2 1 1 4 4
5 2 5 0 4 1 3 5 3 4 2
6 3 1 0 5 1 4 4 5 2 3 5 3
5 5 3 0 4 3 6 2 6 4 3
5 2 5 0 4 1 3 5 3 4 2
5 5 1 4 6 0 3 1 4 3 2
1 1 6
6 0 1 4 6 2 3 3 3 1 6 5 5
5 0 4 3 5 1 3 5 3 4 4
6 3 1 0 5 1 4 4 5 2 3 5 3
6 4 3 3 6 1 4 5 6 2 6 0 2
5 0 4 3 5 1 3 5 3 4 4
1 3 3
5 5 3 0 4 3 6 2 6 4 3
5 5 1 4 6 0 3 1 4 3 2
2 1 4 2 3
5 5 3 0 4 3 6 2 6 4 3
2 5 5 2 4
5 2 5 0 4 1 3 5 3 4 2
6 4 3 3 6 1 4 5 6 2 6 0 2
1 1 6
5 5 1 4 6 0 3 1 4 3 2
6 3 1 0 5 1 4 4 5 2 3 5 3
1 4 2
6 4 3 3 6 1 4 5 6 2 6 0 2
6 2 3 3 5 0 3 5 6 1 2 4 3
5 5 3 0 4 3 6 2 6 4 3
2 1 4 2 3
5 2 5 0 4 1 3 5 3 4 2
6 4 3 3 6 1 4 5 6 2 6 0 2
5 5 3 0 4 3 6 2 6 4 3
5 0 4 3 5 1 3 5 3 4 4
5 5 1 4 6 0 3 1 4 3 2
1 1 6
2 5 5 2 4
5 5 1 4 6 0 3 1 4 3 2
5 0 4 3 5 1 3 5 3 4 4
2 1 4 2 3
1 3 3
6 4 3 3 6 1 4 5 6 2 6 0 2
5 5 3 0 4 3 6 2 6 4 3
6 3 1 0 5 1 4 4 5 2 3 5 3
2 5 3 4 6
5 5 1 4 6 0 3 1 4 3 2
